solution status: time limit reached
objective value:                                25069
X$P1#9#9                                            1 	(obj:0)
X$P2#11#12                                          1 	(obj:0)
X$P5#2#12                                           1 	(obj:0)
X$P6#3#12                                           1 	(obj:0)
X$P7#9#9                                            1 	(obj:0)
X$P18#1#9                                           1 	(obj:0)
X$P21#9#9                                           1 	(obj:0)
X$P22#9#9                                           1 	(obj:0)
X$P23#9#9                                           1 	(obj:0)
X$P25#9#9                                           1 	(obj:0)
X$P28#9#9                                           1 	(obj:0)
X$P31#5#12                                          1 	(obj:0)
X$P33#11#9                                          1 	(obj:0)
X$P34#5#9                                           1 	(obj:0)
X$P35#9#9                                           1 	(obj:0)
X$P36#1#9                                           1 	(obj:0)
X$P40#1#9                                           1 	(obj:0)
X$P41#3#9                                           1 	(obj:0)
X$P42#1#9                                           1 	(obj:0)
X$P47#11#9                                          1 	(obj:0)
X$P49#11#9                                          1 	(obj:0)
X$P53#1#9                                           1 	(obj:0)
X$P54#5#9                                           1 	(obj:0)
X$P55#3#9                                           1 	(obj:0)
X$P56#9#9                                           1 	(obj:0)
X$P57#9#9                                           1 	(obj:0)
X$P58#5#9                                           1 	(obj:0)
X$P59#1#9                                           1 	(obj:0)
X$P60#11#9                                          1 	(obj:0)
X$P61#1#9                                           1 	(obj:0)
X$P62#1#9                                           1 	(obj:0)
X$P65#9#9                                           1 	(obj:0)
X$P66#5#9                                           1 	(obj:0)
X$P69#3#9                                           1 	(obj:0)
X$P70#3#9                                           1 	(obj:0)
X$P74#9#9                                           1 	(obj:0)
X$P75#3#9                                           1 	(obj:0)
X$P76#9#9                                           1 	(obj:0)
X$P77#5#9                                           1 	(obj:0)
X$P78#11#9                                          1 	(obj:0)
X$P79#1#9                                           1 	(obj:0)
X$P84#3#9                                           1 	(obj:0)
X$P88#11#9                                          1 	(obj:0)
X$P89#11#9                                          1 	(obj:0)
X$P90#5#9                                           1 	(obj:0)
X$P91#11#9                                          1 	(obj:0)
X$P99#1#9                                           1 	(obj:0)
X$P100#9#9                                          1 	(obj:0)
X$P103#11#9                                         1 	(obj:0)
X$P104#1#9                                          1 	(obj:0)
X$P107#1#9                                          1 	(obj:0)
X$P111#11#9                                         1 	(obj:0)
X$P114#1#9                                          1 	(obj:0)
X$P115#3#9                                          1 	(obj:0)
X$P119#3#9                                          1 	(obj:0)
X$P120#9#9                                          1 	(obj:0)
X$P121#3#9                                          1 	(obj:0)
X$P126#11#9                                         1 	(obj:0)
X$P127#5#9                                          1 	(obj:0)
X$P129#3#9                                          1 	(obj:0)
X$P130#9#9                                          1 	(obj:0)
X$P131#1#9                                          1 	(obj:0)
X$P132#3#9                                          1 	(obj:0)
X$P133#1#9                                          1 	(obj:0)
X$P134#1#9                                          1 	(obj:0)
X$P135#3#9                                          1 	(obj:0)
X$P136#3#9                                          1 	(obj:0)
X$P137#3#9                                          1 	(obj:0)
X$P138#1#9                                          1 	(obj:0)
X$P139#1#9                                          1 	(obj:0)
X$P140#3#9                                          1 	(obj:0)
X$P141#1#9                                          1 	(obj:0)
X$P142#1#9                                          1 	(obj:0)
X$P143#3#9                                          1 	(obj:0)
X$P144#5#9                                          1 	(obj:0)
X$P145#11#9                                         1 	(obj:0)
X$P146#5#9                                          1 	(obj:0)
X$P147#5#9                                          1 	(obj:0)
X$P148#1#9                                          1 	(obj:0)
X$P149#3#9                                          1 	(obj:0)
X$P150#5#9                                          1 	(obj:0)
X$P151#1#9                                          1 	(obj:0)
X$P152#5#9                                          1 	(obj:0)
X$P153#9#9                                          1 	(obj:0)
X$P154#9#9                                          1 	(obj:0)
X$P155#3#9                                          1 	(obj:0)
X$P156#1#9                                          1 	(obj:0)
X$P158#11#9                                         1 	(obj:0)
X$P159#9#9                                          1 	(obj:0)
X$P163#9#9                                          1 	(obj:0)
X$P164#1#9                                          1 	(obj:0)
X$P168#3#9                                          1 	(obj:0)
X$P169#9#9                                          1 	(obj:0)
X$P170#5#9                                          1 	(obj:0)
X$P175#3#9                                          1 	(obj:0)
X$P176#9#9                                          1 	(obj:0)
X$P177#1#9                                          1 	(obj:0)
X$P182#3#9                                          1 	(obj:0)
X$P183#1#9                                          1 	(obj:0)
X$P185#5#9                                          1 	(obj:0)
X$P186#5#9                                          1 	(obj:0)
X$P187#9#9                                          1 	(obj:0)
X$P188#9#9                                          1 	(obj:0)
X$P189#1#9                                          1 	(obj:0)
X$P190#1#9                                          1 	(obj:0)
X$P191#1#9                                          1 	(obj:0)
X$P195#3#9                                          1 	(obj:0)
X$P196#11#9                                         1 	(obj:0)
X$P197#5#9                                          1 	(obj:0)
X$P199#1#9                                          1 	(obj:0)
X$P203#5#9                                          1 	(obj:0)
X$P204#5#9                                          1 	(obj:0)
X$P205#3#9                                          1 	(obj:0)
X$P207#11#9                                         1 	(obj:0)
Z$P1$P34#9#5                                        1 	(obj:4)
Z$P1$P40#9#1                                        1 	(obj:8)
Z$P1$P47#9#11                                       1 	(obj:2)
Z$P1$P61#9#1                                        1 	(obj:272)
Z$P1$P70#9#3                                        1 	(obj:6)
Z$P1$P90#9#5                                        1 	(obj:12)
Z$P1$P91#9#11                                       1 	(obj:6)
Z$P1$P121#9#3                                       1 	(obj:6)
Z$P1$P186#9#5                                       1 	(obj:4)
Z$P2$P53#11#1                                       1 	(obj:20)
Z$P2$P66#11#5                                       1 	(obj:6)
Z$P2$P84#11#3                                       1 	(obj:8)
Z$P2$P151#11#1                                      1 	(obj:20)
Z$P2$P153#11#9                                      1 	(obj:12)
Z$P2$P204#11#5                                      1 	(obj:6)
Z$P5$P186#2#5                                       1 	(obj:243)
Z$P5$P204#2#5                                       1 	(obj:3)
Z$P5$P7#2#9                                         1 	(obj:798)
Z$P5$P207#2#11                                      1 	(obj:27)
Z$P6$P186#3#5                                       1 	(obj:10)
Z$P6$P33#3#11                                       1 	(obj:48)
Z$P6$P56#3#9                                        1 	(obj:6)
Z$P6$P35#3#9                                        1 	(obj:36)
Z$P6$P74#3#9                                        1 	(obj:18)
Z$P6$P111#3#11                                      1 	(obj:8)
Z$P6$P114#3#1                                       1 	(obj:98)
Z$P6$P152#3#5                                       1 	(obj:2)
Z$P6$P176#3#9                                       1 	(obj:6)
Z$P7$P186#9#5                                       1 	(obj:332)
Z$P7$P204#9#5                                       1 	(obj:4)
Z$P7$P207#9#11                                      1 	(obj:8)
Z$P18$P120#1#9                                      1 	(obj:240)
Z$P18$P145#1#11                                     1 	(obj:20)
Z$P18$P121#1#3                                      1 	(obj:2)
Z$P18$P186#1#5                                      1 	(obj:8)
Z$P21$P145#9#11                                     1 	(obj:8)
Z$P21$P121#9#3                                      1 	(obj:18)
Z$P21$P186#9#5                                      1 	(obj:24)
Z$P21$P148#9#1                                      1 	(obj:8)
Z$P21$P149#9#3                                      1 	(obj:12)
Z$P21$P104#9#1                                      1 	(obj:24)
Z$P21$P137#9#3                                      1 	(obj:6)
Z$P21$P199#9#1                                      1 	(obj:56)
Z$P21$P147#9#5                                      1 	(obj:4)
Z$P21$P41#9#3                                       1 	(obj:84)
Z$P21$P190#9#1                                      1 	(obj:8)
Z$P21$P205#9#3                                      1 	(obj:12)
Z$P21$P42#9#1                                       1 	(obj:104)
Z$P21$P203#9#5                                      1 	(obj:28)
Z$P22$P145#9#11                                     1 	(obj:6)
Z$P22$P121#9#3                                      1 	(obj:12)
Z$P22$P148#9#1                                      1 	(obj:32)
Z$P22$P149#9#3                                      1 	(obj:42)
Z$P22$P158#9#11                                     1 	(obj:2)
Z$P22$P199#9#1                                      1 	(obj:16)
Z$P22$P41#9#3                                       1 	(obj:18)
Z$P22$P189#9#1                                      1 	(obj:8)
Z$P22$P196#9#11                                     1 	(obj:2)
Z$P22$P197#9#5                                      1 	(obj:4)
Z$P22$P205#9#3                                      1 	(obj:24)
Z$P22$P42#9#1                                       1 	(obj:40)
Z$P22$P203#9#5                                      1 	(obj:8)
Z$P23$P145#9#11                                     1 	(obj:14)
Z$P23$P121#9#3                                      1 	(obj:12)
Z$P23$P186#9#5                                      1 	(obj:20)
Z$P23$P60#9#11                                      1 	(obj:4)
Z$P23$P62#9#1                                       1 	(obj:8)
Z$P23$P111#9#11                                     1 	(obj:2)
Z$P23$P78#9#11                                      1 	(obj:2)
Z$P23$P41#9#3                                       1 	(obj:102)
Z$P23$P191#9#1                                      1 	(obj:8)
Z$P23$P196#9#11                                     1 	(obj:2)
Z$P23$P205#9#3                                      1 	(obj:6)
Z$P23$P42#9#1                                       1 	(obj:128)
Z$P25$P145#9#11                                     1 	(obj:14)
Z$P25$P121#9#3                                      1 	(obj:6)
Z$P25$P186#9#5                                      1 	(obj:8)
Z$P25$P33#9#11                                      1 	(obj:2)
Z$P25$P60#9#11                                      1 	(obj:2)
Z$P25$P149#9#3                                      1 	(obj:12)
Z$P25$P104#9#1                                      1 	(obj:16)
Z$P25$P137#9#3                                      1 	(obj:12)
Z$P25$P199#9#1                                      1 	(obj:56)
Z$P25$P41#9#3                                       1 	(obj:36)
Z$P25$P191#9#1                                      1 	(obj:8)
Z$P25$P205#9#3                                      1 	(obj:12)
Z$P25$P42#9#1                                       1 	(obj:64)
Z$P25$P203#9#5                                      1 	(obj:28)
Z$P28$P145#9#11                                     1 	(obj:28)
Z$P28$P183#9#1                                      1 	(obj:8)
Z$P28$P121#9#3                                      1 	(obj:24)
Z$P28$P186#9#5                                      1 	(obj:40)
Z$P28$P148#9#1                                      1 	(obj:32)
Z$P28$P149#9#3                                      1 	(obj:18)
Z$P31$P145#5#11                                     1 	(obj:12)
Z$P31$P183#5#1                                      1 	(obj:4)
Z$P31$P121#5#3                                      1 	(obj:2)
Z$P31$P142#5#1                                      1 	(obj:4)
Z$P31$P149#5#3                                      1 	(obj:2)
Z$P31$P104#5#1                                      1 	(obj:4)
Z$P31$P137#5#3                                      1 	(obj:2)
Z$P31$P76#5#9                                       1 	(obj:4)
Z$P31$P126#5#11                                     1 	(obj:24)
Z$P31$P130#5#9                                      1 	(obj:16)
Z$P31$P133#5#1                                      1 	(obj:20)
Z$P31$P205#5#3                                      1 	(obj:16)
Z$P31$P42#5#1                                       1 	(obj:28)
Z$P33$P159#11#9                                     1 	(obj:2)
Z$P33$P58#11#5                                      1 	(obj:6)
Z$P33$P74#11#9                                      1 	(obj:12)
Z$P33$P114#11#1                                     1 	(obj:130)
Z$P33$P54#11#5                                      1 	(obj:12)
Z$P33$P132#11#3                                     1 	(obj:32)
Z$P33$P177#11#1                                     1 	(obj:10)
Z$P33$P139#11#1                                     1 	(obj:10)
Z$P33$P99#11#1                                      1 	(obj:10)
Z$P33$P141#11#1                                     1 	(obj:10)
Z$P34$P40#5#1                                       1 	(obj:4)
Z$P34$P65#5#9                                       1 	(obj:12)
Z$P34$P159#5#9                                      1 	(obj:4)
Z$P34$P47#5#11                                      1 	(obj:162)
Z$P34$P49#5#11                                      1 	(obj:6)
Z$P34$P131#5#1                                      1 	(obj:64)
Z$P34$P132#5#3                                      1 	(obj:2)
Z$P34$P36#5#1                                       1 	(obj:12)
Z$P34$P135#5#3                                      1 	(obj:30)
Z$P34$P155#5#3                                      1 	(obj:2)
Z$P34$P169#5#9                                      1 	(obj:16)
Z$P35$P186#9#5                                      1 	(obj:16)
Z$P35$P111#9#11                                     1 	(obj:16)
Z$P35$P114#9#1                                      1 	(obj:56)
Z$P35$P104#9#1                                      1 	(obj:24)
Z$P35$P137#9#3                                      1 	(obj:30)
Z$P35$P164#9#1                                      1 	(obj:24)
Z$P36$P47#1#11                                      1 	(obj:40)
Z$P36$P155#1#3                                      1 	(obj:212)
Z$P36$P169#1#9                                      1 	(obj:848)
Z$P40$P159#1#9                                      1 	(obj:8)
Z$P40$P70#1#3                                       1 	(obj:2)
Z$P40$P90#1#5                                       1 	(obj:4)
Z$P40$P91#1#11                                      1 	(obj:10)
Z$P40$P175#1#3                                      1 	(obj:2)
Z$P40$P76#1#9                                       1 	(obj:784)
Z$P40$P78#1#11                                      1 	(obj:970)
Z$P40$P185#1#5                                      1 	(obj:4)
Z$P40$P195#1#3                                      1 	(obj:16)
Z$P40$P205#1#3                                      1 	(obj:4)
Z$P40$P203#1#5                                      1 	(obj:4)
Z$P41$P60#3#11                                      1 	(obj:32)
Z$P41$P142#3#1                                      1 	(obj:4)
Z$P41$P147#3#5                                      1 	(obj:2)
Z$P41$P126#3#11                                     1 	(obj:208)
Z$P41$P130#3#9                                      1 	(obj:114)
Z$P41$P133#3#1                                      1 	(obj:42)
Z$P41$P146#3#5                                      1 	(obj:4)
Z$P41$P187#3#9                                      1 	(obj:18)
Z$P41$P188#3#9                                      1 	(obj:6)
Z$P41$P189#3#1                                      1 	(obj:2)
Z$P41$P190#3#1                                      1 	(obj:10)
Z$P41$P191#3#1                                      1 	(obj:2)
Z$P41$P196#3#11                                     1 	(obj:88)
Z$P41$P197#3#5                                      1 	(obj:12)
Z$P41$P42#3#1                                       1 	(obj:202)
Z$P42$P126#1#11                                     1 	(obj:70)
Z$P42$P205#1#3                                      1 	(obj:70)
Z$P47$P120#11#9                                     1 	(obj:2)
Z$P47$P61#11#1                                      1 	(obj:10)
Z$P47$P135#11#3                                     1 	(obj:8)
Z$P47$P155#11#3                                     1 	(obj:16)
Z$P47$P169#11#9                                     1 	(obj:6)
Z$P49$P65#11#9                                      1 	(obj:36)
Z$P49$P55#11#3                                      1 	(obj:88)
Z$P49$P77#11#5                                      1 	(obj:102)
Z$P49$P131#11#1                                     1 	(obj:70)
Z$P49$P135#11#3                                     1 	(obj:72)
Z$P53$P140#1#3                                      1 	(obj:2)
Z$P53$P66#1#5                                       1 	(obj:16)
Z$P53$P84#1#3                                       1 	(obj:4)
Z$P53$P153#1#9                                      1 	(obj:48)
Z$P53$P204#1#5                                      1 	(obj:4)
Z$P54$P65#5#9                                       1 	(obj:4)
Z$P54$P56#5#9                                       1 	(obj:20)
Z$P54$P175#5#3                                      1 	(obj:4)
Z$P54$P148#5#1                                      1 	(obj:4)
Z$P54$P176#5#9                                      1 	(obj:16)
Z$P54$P104#5#1                                      1 	(obj:4)
Z$P54$P137#5#3                                      1 	(obj:2)
Z$P54$P75#5#3                                       1 	(obj:8)
Z$P54$P141#5#1                                      1 	(obj:8)
Z$P54$P89#5#11                                      1 	(obj:12)
Z$P55$P77#3#5                                       1 	(obj:14)
Z$P55$P131#3#1                                      1 	(obj:2)
Z$P56$P127#9#5                                      1 	(obj:4)
Z$P56$P66#9#5                                       1 	(obj:4)
Z$P56$P84#9#3                                       1 	(obj:6)
Z$P56$P148#9#1                                      1 	(obj:8)
Z$P56$P75#9#3                                       1 	(obj:24)
Z$P56$P182#9#3                                      1 	(obj:6)
Z$P56$P79#9#1                                       1 	(obj:8)
Z$P56$P89#9#11                                      1 	(obj:10)
Z$P57$P144#9#5                                      1 	(obj:24)
Z$P57$P183#9#1                                      1 	(obj:24)
Z$P57$P150#9#5                                      1 	(obj:312)
Z$P57$P132#9#3                                      1 	(obj:48)
Z$P57$P158#9#11                                     1 	(obj:62)
Z$P57$P129#9#3                                      1 	(obj:36)
Z$P57$P88#9#11                                      1 	(obj:2)
Z$P57$P139#9#1                                      1 	(obj:16)
Z$P58$P65#5#9                                       1 	(obj:16)
Z$P58$P120#5#9                                      1 	(obj:16)
Z$P58$P140#5#3                                      1 	(obj:2)
Z$P58$P183#5#1                                      1 	(obj:4)
Z$P58$P148#5#1                                      1 	(obj:4)
Z$P58$P149#5#3                                      1 	(obj:2)
Z$P58$P163#5#9                                      1 	(obj:8)
Z$P58$P177#5#1                                      1 	(obj:4)
Z$P59$P100#1#9                                      1 	(obj:200)
Z$P59$P103#1#11                                     1 	(obj:10)
Z$P59$P119#1#3                                      1 	(obj:2)
Z$P59$P143#1#3                                      1 	(obj:4)
Z$P59$P205#1#3                                      1 	(obj:2)
Z$P59$P136#1#3                                      1 	(obj:6)
Z$P60$P62#11#1                                      1 	(obj:150)
Z$P60$P69#11#3                                      1 	(obj:136)
Z$P60$P142#11#1                                     1 	(obj:60)
Z$P60$P154#11#9                                     1 	(obj:10)
Z$P60$P134#11#1                                     1 	(obj:80)
Z$P60$P139#11#1                                     1 	(obj:10)
Z$P60$P119#11#3                                     1 	(obj:8)
Z$P60$P147#11#5                                     1 	(obj:30)
Z$P60$P146#11#5                                     1 	(obj:18)
Z$P60$P187#11#9                                     1 	(obj:2)
Z$P60$P188#11#9                                     1 	(obj:8)
Z$P60$P189#11#1                                     1 	(obj:20)
Z$P60$P190#11#1                                     1 	(obj:10)
Z$P60$P191#11#1                                     1 	(obj:20)
Z$P60$P197#11#5                                     1 	(obj:30)
Z$P60$P205#11#3                                     1 	(obj:8)
Z$P60$P170#11#5                                     1 	(obj:6)
Z$P60$P136#11#3                                     1 	(obj:8)
Z$P61$P90#1#5                                       1 	(obj:8)
Z$P61$P91#1#11                                      1 	(obj:40)
Z$P61$P163#1#9                                      1 	(obj:40)
Z$P61$P168#1#3                                      1 	(obj:2)
Z$P62$P188#1#9                                      1 	(obj:16)
Z$P62$P197#1#5                                      1 	(obj:8)
Z$P65$P145#9#11                                     1 	(obj:2)
Z$P65$P77#9#5                                       1 	(obj:84)
Z$P65$P131#9#1                                      1 	(obj:64)
Z$P65$P177#9#1                                      1 	(obj:24)
Z$P65$P135#9#3                                      1 	(obj:42)
Z$P66$P140#5#3                                      1 	(obj:4)
Z$P66$P159#5#9                                      1 	(obj:4)
Z$P66$P84#5#3                                       1 	(obj:14)
Z$P66$P151#5#1                                      1 	(obj:48)
Z$P66$P153#5#9                                      1 	(obj:32)
Z$P66$P207#5#11                                     1 	(obj:18)
Z$P69$P154#3#9                                      1 	(obj:12)
Z$P69$P134#3#1                                      1 	(obj:2)
Z$P69$P139#3#1                                      1 	(obj:2)
Z$P69$P146#3#5                                      1 	(obj:4)
Z$P69$P197#3#5                                      1 	(obj:2)
Z$P69$P170#3#5                                      1 	(obj:2)
Z$P70$P90#3#5                                       1 	(obj:76)
Z$P70$P91#3#11                                      1 	(obj:272)
Z$P70$P107#3#1                                      1 	(obj:2)
Z$P70$P163#3#9                                      1 	(obj:6)
Z$P70$P170#3#5                                      1 	(obj:12)
Z$P74$P186#9#5                                      1 	(obj:4)
Z$P74$P114#9#1                                      1 	(obj:32)
Z$P74$P152#9#5                                      1 	(obj:8)
Z$P74$P132#9#3                                      1 	(obj:12)
Z$P75$P176#3#9                                      1 	(obj:42)
Z$P75$P134#3#1                                      1 	(obj:4)
Z$P75$P89#3#11                                      1 	(obj:40)
Z$P76$P134#9#1                                      1 	(obj:8)
Z$P76$P199#9#1                                      1 	(obj:8)
Z$P76$P78#9#11                                      1 	(obj:268)
Z$P76$P103#9#11                                     1 	(obj:2)
Z$P76$P156#9#1                                      1 	(obj:16)
Z$P76$P185#9#5                                      1 	(obj:8)
Z$P76$P195#9#3                                      1 	(obj:102)
Z$P76$P205#9#3                                      1 	(obj:30)
Z$P76$P203#9#5                                      1 	(obj:4)
Z$P77$P131#5#1                                      1 	(obj:28)
Z$P77$P135#5#3                                      1 	(obj:12)
Z$P78$P199#11#1                                     1 	(obj:80)
Z$P78$P195#11#3                                     1 	(obj:80)
Z$P78$P205#11#3                                     1 	(obj:40)
Z$P78$P203#11#5                                     1 	(obj:60)
Z$P79$P84#1#3                                       1 	(obj:8)
Z$P79$P204#1#5                                      1 	(obj:4)
Z$P79$P207#1#11                                     1 	(obj:10)
Z$P79$P182#1#3                                      1 	(obj:2)
Z$P84$P151#3#1                                      1 	(obj:2)
Z$P84$P153#3#9                                      1 	(obj:18)
Z$P84$P204#3#5                                      1 	(obj:12)
Z$P84$P207#3#11                                     1 	(obj:8)
Z$P88$P127#11#5                                     1 	(obj:12)
Z$P88$P144#11#5                                     1 	(obj:6)
Z$P88$P159#11#9                                     1 	(obj:10)
Z$P88$P183#11#1                                     1 	(obj:30)
Z$P88$P150#11#5                                     1 	(obj:12)
Z$P88$P132#11#3                                     1 	(obj:8)
Z$P89$P175#11#3                                     1 	(obj:8)
Z$P89$P176#11#9                                     1 	(obj:18)
Z$P89$P141#11#1                                     1 	(obj:60)
Z$P90$P91#5#11                                      1 	(obj:210)
Z$P90$P107#5#1                                      1 	(obj:36)
Z$P90$P168#5#3                                      1 	(obj:14)
Z$P91$P107#11#1                                     1 	(obj:10)
Z$P91$P163#11#9                                     1 	(obj:2)
Z$P91$P99#11#1                                      1 	(obj:10)
Z$P99$P152#1#5                                      1 	(obj:4)
Z$P99$P132#1#3                                      1 	(obj:2)
Z$P100$P134#9#1                                     1 	(obj:72)
Z$P100$P139#9#1                                     1 	(obj:16)
Z$P100$P103#9#11                                    1 	(obj:84)
Z$P100$P119#9#3                                     1 	(obj:30)
Z$P100$P143#9#3                                     1 	(obj:60)
Z$P100$P147#9#5                                     1 	(obj:28)
Z$P100$P156#9#1                                     1 	(obj:80)
Z$P100$P205#9#3                                     1 	(obj:36)
Z$P100$P136#9#3                                     1 	(obj:24)
Z$P103$P134#11#1                                    1 	(obj:40)
Z$P103$P139#11#1                                    1 	(obj:20)
Z$P103$P119#11#3                                    1 	(obj:32)
Z$P103$P143#11#3                                    1 	(obj:8)
Z$P103$P147#11#5                                    1 	(obj:36)
Z$P103$P156#11#1                                    1 	(obj:90)
Z$P103$P185#11#5                                    1 	(obj:6)
Z$P103$P205#11#3                                    1 	(obj:8)
Z$P103$P136#11#3                                    1 	(obj:8)
Z$P104$P186#1#5                                     1 	(obj:4)
Z$P104$P111#1#11                                    1 	(obj:20)
Z$P104$P137#1#3                                     1 	(obj:306)
Z$P107$P186#1#5                                     1 	(obj:4)
Z$P107$P153#1#9                                     1 	(obj:8)
Z$P107$P168#1#3                                     1 	(obj:14)
Z$P107$P135#1#3                                     1 	(obj:4)
Z$P111$P121#11#3                                    1 	(obj:8)
Z$P111$P186#11#5                                    1 	(obj:30)
Z$P111$P114#11#1                                    1 	(obj:10)
Z$P111$P137#11#3                                    1 	(obj:16)
Z$P111$P163#11#9                                    1 	(obj:4)
Z$P111$P164#11#1                                    1 	(obj:70)
Z$P114$P186#1#5                                     1 	(obj:24)
Z$P114$P152#1#5                                     1 	(obj:20)
Z$P114$P176#1#9                                     1 	(obj:8)
Z$P114$P137#1#3                                     1 	(obj:8)
Z$P114$P132#1#3                                     1 	(obj:2)
Z$P115$P186#3#5                                     1 	(obj:208)
Z$P115$P138#3#1                                     1 	(obj:244)
Z$P119$P142#3#1                                     1 	(obj:2)
Z$P119$P154#3#9                                     1 	(obj:18)
Z$P119$P146#3#5                                     1 	(obj:4)
Z$P120$P127#9#5                                     1 	(obj:4)
Z$P120$P140#9#3                                     1 	(obj:18)
Z$P120$P145#9#11                                    1 	(obj:4)
Z$P120$P121#9#3                                     1 	(obj:6)
Z$P120$P186#9#5                                     1 	(obj:4)
Z$P120$P148#9#1                                     1 	(obj:8)
Z$P120$P149#9#3                                     1 	(obj:6)
Z$P120$P131#9#1                                     1 	(obj:8)
Z$P120$P132#9#3                                     1 	(obj:6)
Z$P121$P127#3#5                                     1 	(obj:2)
Z$P121$P144#3#5                                     1 	(obj:2)
Z$P121$P145#3#11                                    1 	(obj:96)
Z$P121$P183#3#1                                     1 	(obj:172)
Z$P121$P186#3#5                                     1 	(obj:24)
Z$P121$P163#3#9                                     1 	(obj:36)
Z$P121$P177#3#1                                     1 	(obj:4)
Z$P121$P139#3#1                                     1 	(obj:2)
Z$P121$P170#3#5                                     1 	(obj:2)
Z$P126$P130#11#9                                    1 	(obj:258)
Z$P126$P133#11#1                                    1 	(obj:1250)
Z$P126$P205#11#3                                    1 	(obj:64)
Z$P127$P145#5#11                                    1 	(obj:12)
Z$P127$P159#5#9                                     1 	(obj:68)
Z$P127$P132#5#3                                     1 	(obj:4)
Z$P127$P158#5#11                                    1 	(obj:18)
Z$P127$P129#5#3                                     1 	(obj:2)
Z$P127$P139#5#1                                     1 	(obj:16)
Z$P129$P159#3#9                                     1 	(obj:12)
Z$P129$P150#3#5                                     1 	(obj:10)
Z$P129$P158#3#11                                    1 	(obj:16)
Z$P129$P139#3#1                                     1 	(obj:2)
Z$P130$P133#9#1                                     1 	(obj:992)
Z$P130$P196#9#11                                    1 	(obj:6)
Z$P130$P197#9#5                                     1 	(obj:8)
Z$P130$P205#9#3                                     1 	(obj:30)
Z$P131$P135#1#3                                     1 	(obj:112)
Z$P131$P169#1#9                                     1 	(obj:8)
Z$P132$P144#3#5                                     1 	(obj:6)
Z$P132$P183#3#1                                     1 	(obj:2)
Z$P132$P150#3#5                                     1 	(obj:16)
Z$P132$P152#3#5                                     1 	(obj:2)
Z$P132$P158#3#11                                    1 	(obj:16)
Z$P132$P177#3#1                                     1 	(obj:2)
Z$P132$P170#3#5                                     1 	(obj:4)
Z$P133$P196#1#11                                    1 	(obj:110)
Z$P133$P197#1#5                                     1 	(obj:12)
Z$P133$P205#1#3                                     1 	(obj:12)
Z$P134$P176#1#9                                     1 	(obj:16)
Z$P134$P143#1#3                                     1 	(obj:4)
Z$P134$P147#1#5                                     1 	(obj:16)
Z$P134$P146#1#5                                     1 	(obj:4)
Z$P134$P136#1#3                                     1 	(obj:4)
Z$P136$P142#3#1                                     1 	(obj:12)
Z$P136$P154#3#9                                     1 	(obj:36)
Z$P136$P146#3#5                                     1 	(obj:12)
Z$P137$P186#3#5                                     1 	(obj:8)
Z$P137$P164#3#1                                     1 	(obj:6)
Z$P138$P140#1#3                                     1 	(obj:2)
Z$P138$P186#1#5                                     1 	(obj:416)
Z$P138$P204#1#5                                     1 	(obj:16)
Z$P138$P207#1#11                                    1 	(obj:30)
Z$P138$P182#1#3                                     1 	(obj:18)
Z$P139$P140#1#3                                     1 	(obj:2)
Z$P139$P145#1#11                                    1 	(obj:10)
Z$P139$P159#1#9                                     1 	(obj:8)
Z$P139$P153#1#9                                     1 	(obj:56)
Z$P139$P158#1#11                                    1 	(obj:10)
Z$P139$P182#1#3                                     1 	(obj:2)
Z$P140$P159#3#9                                     1 	(obj:6)
Z$P140$P186#3#5                                     1 	(obj:2)
Z$P140$P151#3#1                                     1 	(obj:2)
Z$P140$P153#3#9                                     1 	(obj:30)
Z$P140$P204#3#5                                     1 	(obj:4)
Z$P140$P163#3#9                                     1 	(obj:6)
Z$P140$P199#3#1                                     1 	(obj:2)
Z$P141$P154#1#9                                     1 	(obj:8)
Z$P141$P176#1#9                                     1 	(obj:40)
Z$P141$P146#1#5                                     1 	(obj:4)
Z$P142$P154#1#9                                     1 	(obj:264)
Z$P142$P146#1#5                                     1 	(obj:160)
Z$P142$P205#1#3                                     1 	(obj:2)
Z$P143$P156#3#1                                     1 	(obj:2)
Z$P143$P185#3#5                                     1 	(obj:2)
Z$P144$P183#5#1                                     1 	(obj:32)
Z$P144$P158#5#11                                    1 	(obj:12)
Z$P145$P159#11#9                                    1 	(obj:2)
Z$P145$P186#11#5                                    1 	(obj:246)
Z$P145$P148#11#1                                    1 	(obj:140)
Z$P146$P154#5#9                                     1 	(obj:172)
Z$P147$P205#5#3                                     1 	(obj:2)
Z$P148$P186#1#5                                     1 	(obj:204)
Z$P148$P149#1#3                                     1 	(obj:176)
Z$P149$P186#3#5                                     1 	(obj:658)
Z$P150$P183#5#1                                     1 	(obj:12)
Z$P150$P158#5#11                                    1 	(obj:150)
Z$P151$P153#1#9                                     1 	(obj:160)
Z$P151$P204#1#5                                     1 	(obj:4)
Z$P151$P207#1#11                                    1 	(obj:30)
Z$P152$P177#5#1                                     1 	(obj:20)
Z$P153$P204#9#5                                     1 	(obj:8)
Z$P153$P207#9#11                                    1 	(obj:4)
Z$P153$P199#9#1                                     1 	(obj:8)
Z$P154$P189#9#1                                     1 	(obj:8)
Z$P154$P191#9#1                                     1 	(obj:8)
Z$P155$P169#3#9                                     1 	(obj:636)
Z$P158$P183#11#1                                    1 	(obj:50)
Z$P158$P186#11#5                                    1 	(obj:6)
Z$P158$P177#11#1                                    1 	(obj:10)
Z$P163$P186#9#5                                     1 	(obj:4)
Z$P163$P177#9#1                                     1 	(obj:16)
Z$P164$P186#1#5                                     1 	(obj:12)
Z$P168$P186#3#5                                     1 	(obj:2)
Z$P168$P176#3#9                                     1 	(obj:6)
Z$P170$P183#5#1                                     1 	(obj:4)
Z$P182$P186#3#5                                     1 	(obj:2)
Z$P182$P204#3#5                                     1 	(obj:66)
Z$P182$P207#3#11                                    1 	(obj:272)
Z$P186$P207#5#11                                    1 	(obj:24)
Z$P187$P199#9#1                                     1 	(obj:8)
Z$P187$P196#9#11                                    1 	(obj:42)
Z$P187$P197#9#5                                     1 	(obj:84)
Z$P188$P196#9#11                                    1 	(obj:50)
Z$P188$P197#9#5                                     1 	(obj:104)
Z$P189$P196#1#11                                    1 	(obj:190)
Z$P189$P197#1#5                                     1 	(obj:80)
Z$P190$P196#1#11                                    1 	(obj:210)
Z$P190$P197#1#5                                     1 	(obj:76)
Z$P191$P196#1#11                                    1 	(obj:230)
Z$P191$P197#1#5                                     1 	(obj:88)
Z$P195$P199#3#1                                     1 	(obj:2)
Z$P195$P203#3#5                                     1 	(obj:2)
Z$P196$P199#11#1                                    1 	(obj:10)
Z$P196$P197#11#5                                    1 	(obj:642)
Z$P196$P205#11#3                                    1 	(obj:16)
Z$P197$P199#5#1                                     1 	(obj:4)
Z$P197$P205#5#3                                     1 	(obj:2)
Z$P199$P205#1#3                                     1 	(obj:46)
Z$P199$P203#1#5                                     1 	(obj:548)
Z$P203$P205#5#3                                     1 	(obj:42)
Z$P204$P207#5#11                                    1 	(obj:402)
